NAME: 10x10 Grid TSP
TYPE: TSP
DIMENSION: 100
EDGE_WEIGHT_TYPE: EUC_2D
NODE_COORD_SECTION
1  0  0
2  1  0
3  2  0
4  3  0
5  4  0
6  5  0
7  6  0
8  7  0
9  8  0
10  9  0
11  0  1
12  1  1
13  2  1
14  3  1
15  4  1
16  5  1
17  6  1
18  7  1
19  8  1
20  9  1
21  0  2
22  1  2
23  2  2
24  3  2
25  4  2
26  5  2
27  6  2
28  7  2
29  8  2
30  9  2
31  0  3
32  1  3
33  2  3
34  3  3
35  4  3
36  5  3
37  6  3
38  7  3
39  8  3
40  9  3
41  0  4
42  1  4
43  2  4
44  3  4
45  4  4
46  5  4
47  6  4
48  7  4
49  8  4
50  9  4
51  0  5
52  1  5
53  2  5
54  3  5
55  4  5
56  5  5
57  6  5
58  7  5
59  8  5
60  9  5
61  0  6
62  1  6
63  2  6
64  3  6
65  4  6
66  5  6
67  6  6
68  7  6
69  8  6
70  9  6
71  0  7
72  1  7
73  2  7
74  3  7
75  4  7
76  5  7
77  6  7
78  7  7
79  8  7
80  9  7
81  0  8
82  1  8
83  2  8
84  3  8
85  4  8
86  5  8
87  6  8
88  7  8
89  8  8
90  9  8
91  0  9
92  1  9
93  2  9
94  3  9
95  4  9
96  5  9
97  6  9
98  7  9
99  8  9
100  9  9    
EOF